15 40
25
11 3 4 0
13 3 2 12
2 9 4 28
2 7 4 21
9 3 0 5
3 7 8 17
2 11 2 20
13 2 2 15
4 11 11 17
13 4 2 8
3 5 12 3
2 11 0 8
2 2 6 19
11 3 0 37
2 3 6 21
4 5 0 0
4 6 0 31
2 12 0 19
2 1 4 20
3 5 9 3
5 13 6 24
4 12 11 28
4 1 2 19
5 2 4 3
6 2 2 17
